array [1..5] of int: X_INTRODUCED_5_ = [-1,-1,1,1,-1];
array [1..3] of int: X_INTRODUCED_8_ = [1,-1,-1];
var 1..9: x:: output_var;
var 1..9: y:: output_var;
var 1..9: z:: output_var;
var 1..9: w:: output_var;
var 1..9: j:: output_var;
var 1..9: k:: output_var;
var 2..18: X:: is_defined_var:: output_var;
var 0..9: X_INTRODUCED_1_ ::var_is_introduced :: is_defined_var;
constraint int_div(j,k,X_INTRODUCED_1_):: defines_var(X_INTRODUCED_1_);
constraint int_lin_le(X_INTRODUCED_5_,[y,x,X_INTRODUCED_1_,z,w],0);
constraint int_lin_eq(X_INTRODUCED_8_,[X,x,y],0):: defines_var(X);
solve  satisfy;
